Version identifier: 22.1.0.0 | 2022-03-09 | 1a383f8ce
CPXPARAM_Threads                                 1
CPXPARAM_MIP_Strategy_VariableSelect             3
CPXPARAM_TimeLimit                               598.627036331
1 of 1 MIP starts provided solutions.
MIP start 'm1' defined initial solution with objective 306.0000.
Tried aggregator 2 times.
MIP Presolve eliminated 50 rows and 1554 columns.
MIP Presolve added 36 rows and 9 columns.
MIP Presolve modified 48 coefficients.
Aggregator did 9 substitutions.
Reduced MIP has 2153 rows, 2464 columns, and 67155 nonzeros.
Reduced MIP has 2464 binaries, 0 generals, 0 SOSs, and 0 indicators.
Presolve time = 0.09 sec. (139.61 ticks)
Probing time = 0.01 sec. (11.41 ticks)
Tried aggregator 1 time.
Detecting symmetries...
MIP Presolve eliminated 6 rows and 0 columns.
MIP Presolve modified 10 coefficients.
Reduced MIP has 2147 rows, 2464 columns, and 67248 nonzeros.
Reduced MIP has 2464 binaries, 0 generals, 0 SOSs, and 0 indicators.
Presolve time = 0.06 sec. (101.72 ticks)
Probing time = 0.01 sec. (11.41 ticks)
Clique table members: 1530.
MIP emphasis: balance optimality and feasibility.
MIP search method: dynamic search.
Parallel mode: none, using 1 thread.
Root relaxation solution time = 0.04 sec. (46.89 ticks)

        Nodes                                         Cuts/
   Node  Left     Objective  IInf  Best Integer    Best Bound    ItCnt     Gap

*     0+    0                          306.0000    47586.0000              --- 
*     0     0      integral     0      308.0000      308.0000      643    0.00%
Elapsed time = 0.26 sec. (353.86 ticks, tree = 0.00 MB, solutions = 2)

Root node processing (before b&c):
  Real time             =    0.26 sec. (354.01 ticks)
Sequential b&c:
  Real time             =    0.00 sec. (0.00 ticks)
                          ------------
Total (root+branch&cut) =    0.26 sec. (354.01 ticks)
Primal:	308
Dual:	308
Status:	Optimal
Time:	0.28
Sequence:
	0
	4
	9
	0
	6
	9
	0
	9
	9
	0
	4
	4
	0
	9
	6
	0
	4
	4
	0
	9
	6
	0
	9
	1
	0
	6
	9
	0
	4
	4
	0
	6
	4
	0
	4
	9
	0
	4
	6
	0
	4
	4
	0
	4
	4
	0
	4
	9
	0
	9
	9
	0
	6
	9
	0
	9
	9
	0
	6
	9
	0
	9
	9
	0
	9
	9
	0
	9
	4
	0
	6
	4
	0
	9
	6
	0
	9
	9
	6
	0
	5
	4
	0
	5
	4
	0
	9
	4
	0
	4
	4
	0
	4
	4
	0
	4
	4
	0
	9
	1
	0
	4
	6
	0
	4
	9
	0
	4
	1
	0
	4
	4
	0
	9
	9
	0
	9
	9
	0
	4
	4
	0
	9
	1
	0
	9
	9
	0
	9
	4
	0
	4
	4
	0
	4
	9
	0
	9
	9
	0
	9
	9
	0
	9
	9
	0
	9
	9
	0
	9
	4
	0
	6
	9
	0
	3
	9
	0
	9
	9
	0
	9
	4
	0
	3
	9
	0
	9
	9
	0
	1
	9
	0
	9
	9
	0
	9
	9
	0
	9
	9
	0
	9
	9
	0
	9
	9
	0
	9
	9
	0
	9
	9
	0
	9
	4
	0
	9
	1
	0
	6
	4
	0
	4
	3
	0
	6
	9
	0
	4
	6
	0
	9
	9
	0
	9
	1
	0
	6
	9
	0
	9
	9
	0
	9
	9
	0
	6
	9
	0
	9
	9
	0
	9
	9
	0
	4
	4
	0
	4
	4
	0
	4
	4
	0
	5
	4
	0
	6
	4
	0
	4
	4
	0
	9
	6
	0
	9
	9
	0
	9
	4
	0
	9
	9
	0
	9
	5
	0
	4
	4
	0
	4
	4
	0
	4
	4
	0
	4
	4
	0
	4
	4
	0
	4
	4
	0
	9
	9
	0
	3
	9
	0
	9
	9
	0
	9
	1
	0
	4
	1
	0
	6
	4
	0
	4
	6
	0
